amountOfEmployees = 50;
horizonLength = 7;
amountOfShifts = 4;

shiftsPerDay = [|12,9,4,0,
|10,5,4,0,
|8,8,4,0,
|4,5,2,0,
|5,6,3,0,
|5,2,3,0,
|11,8,4,0,
|];

preferences = array3d(1..50,1..7,1..4,[1,4,4,2,4,4,4,4,4,4,4,4,4,4,4,4,4,4,4,4,4,4,4,4,4,4,4,4,2,1,1,1,4,4,4,4,2,4,4,4,2,4,4,4,4,4,4,4,4,4,4,4,2,4,4,4,1,3,3,1,2,2,2,2,2,2,2,2,2,2,2,2,2,2,2,2,2,2,2,2,2,2,2,2,2,3,3,2,2,2,2,2,1,2,2,2,1,2,2,2,2,2,2,2,2,2,2,2,1,2,2,2,4,2,2,4,3,2,2,2,1,2,2,2,1,2,2,2,3,2,2,2,3,2,2,2,1,2,2,2,3,4,4,3,1,1,1,1,1,1,1,1,1,1,1,1,1,1,1,1,1,1,1,1,1,1,1,1,3,2,2,3,3,1,1,1,4,1,1,1,4,1,1,1,3,1,1,1,3,1,1,1,4,1,1,1,3,3,3,3,1,2,2,2,2,2,2,2,2,2,2,2,1,2,2,2,1,2,2,2,2,2,2,2,4,3,3,4,2,1,1,1,3,1,1,1,3,1,1,1,2,1,1,1,2,1,1,1,3,1,1,1,4,2,2,4,1,2,2,2,2,2,2,2,2,2,2,2,1,2,2,2,1,2,2,2,2,2,2,2,4,1,1,4,1,4,4,4,1,4,4,4,1,4,4,4,1,4,4,4,1,4,4,4,1,4,4,4,2,4,4,2,4,1,1,1,4,1,1,1,4,1,1,1,4,1,1,1,4,1,1,1,4,1,1,1,1,2,2,1,1,4,4,4,4,4,4,4,4,4,4,4,1,4,4,4,1,4,4,4,4,4,4,4,1,3,3,1,1,2,2,2,1,2,2,2,1,2,2,2,1,2,2,2,1,2,2,2,1,2,2,2,1,3,3,1,1,3,3,3,2,3,3,3,2,3,3,3,1,3,3,3,1,3,3,3,2,3,3,3,2,2,2,2,2,4,4,4,2,4,4,4,2,4,4,4,2,4,4,4,2,4,4,4,2,4,4,4,2,1,1,2,1,2,2,2,4,2,2,2,4,2,2,2,1,2,2,2,1,2,2,2,4,2,2,2,2,3,3,2,1,2,2,2,4,2,2,2,4,2,2,2,1,2,2,2,1,2,2,2,4,2,2,2,4,2,2,4,3,1,1,1,2,1,1,1,2,1,1,1,3,1,1,1,3,1,1,1,2,1,1,1,1,3,3,1,4,2,2,2,2,2,2,2,2,2,2,2,4,2,2,2,4,2,2,2,2,2,2,2,2,2,2,2,3,4,4,4,1,4,4,4,1,4,4,4,3,4,4,4,3,4,4,4,1,4,4,4,2,3,3,2,1,1,1,1,2,1,1,1,2,1,1,1,1,1,1,1,1,1,1,1,2,1,1,1,4,1,1,4,2,1,1,1,2,1,1,1,2,1,1,1,2,1,1,1,2,1,1,1,2,1,1,1,3,2,2,3,2,2,2,2,4,2,2,2,4,2,2,2,2,2,2,2,2,2,2,2,4,2,2,2,4,3,3,4,4,1,1,1,4,1,1,1,4,1,1,1,4,1,1,1,4,1,1,1,4,1,1,1,1,1,1,1,2,4,4,4,4,4,4,4,4,4,4,4,2,4,4,4,2,4,4,4,4,4,4,4,3,1,1,3,2,3,3,3,2,3,3,3,2,3,3,3,2,3,3,3,2,3,3,3,2,3,3,3,1,3,3,1,1,4,4,4,1,4,4,4,1,4,4,4,1,4,4,4,1,4,4,4,1,4,4,4,1,4,4,1,4,4,4,4,4,4,4,4,4,4,4,4,4,4,4,4,4,4,4,4,4,4,4,4,1,2,2,1,2,3,3,3,4,3,3,3,4,3,3,3,2,3,3,3,2,3,3,3,4,3,3,3,1,1,1,1,2,1,1,1,2,1,1,1,2,1,1,1,2,1,1,1,2,1,1,1,2,1,1,1,3,3,3,3,2,4,4,4,2,4,4,4,2,4,4,4,2,4,4,4,2,4,4,4,2,4,4,4,3,3,3,3,4,2,2,2,4,2,2,2,4,2,2,2,4,2,2,2,4,2,2,2,4,2,2,2,2,1,1,2,2,1,1,1,3,1,1,1,3,1,1,1,2,1,1,1,2,1,1,1,3,1,1,1,1,1,1,1,4,2,2,2,1,2,2,2,1,2,2,2,4,2,2,2,4,2,2,2,1,2,2,2,1,3,3,1,1,2,2,2,1,2,2,2,1,2,2,2,1,2,2,2,1,2,2,2,1,2,2,2,1,2,2,1,4,2,2,2,1,2,2,2,1,2,2,2,4,2,2,2,4,2,2,2,1,2,2,2,2,1,1,2,4,2,2,2,1,2,2,2,1,2,2,2,4,2,2,2,4,2,2,2,1,2,2,2,1,3,3,1,4,4,4,4,2,4,4,4,2,4,4,4,4,4,4,4,4,4,4,4,2,4,4,4,2,2,2,2,4,4,4,4,3,4,4,4,3,4,4,4,4,4,4,4,4,4,4,4,3,4,4,4,2,1,1,2,4,2,2,2,4,2,2,2,4,2,2,2,4,2,2,2,4,2,2,2,4,2,2,2,2,1,1,2,4,4,4,4,3,4,4,4,3,4,4,4,4,4,4,4,4,4,4,4,3,4,4,4,3,2,2,3,4,1,1,1,4,1,1,1,4,1,1,1,4,1,1,1,4,1,1,1,4,1,1,1,2,2,2,2,1,3,3,3,1,3,3,3,1,3,3,3,1,3,3,3,1,3,3,3,1,3,3,3,2,2,2,2,2,2,2,2,2,2,2,2,2,2,2,2,2,2,2,2,2,2,2,2,2,2,2,2,2,3,3,2,2,4,4,4,2,4,4,4,2,4,4,4,2,4,4,4,2,4,4,4,2,4,4,4,1,1,1,1,2,1,1,1,1,1,1,1,1,1,1,1,2,1,1,1,2,1,1,1,1,1,1,1,4,3,3,4,4,2,2,2,1,2,2,2,1,2,2,2,4,2,2,2,4,2,2,2,1,2,2,2,2,3,3,2,4,1,1,1,4,1,1,1,4,1,1,1,4,1,1,1,4,1,1,1,4,1,1,1,1,1,1,1,1,1,1,1,1,1,1,1,1,1,1,1,1,1,1,1,1,1,1,1,1,1,1,1,]);

minShifts = 4;
maxShifts = 5;
minConsecShifts = 1;
maxConsecShifts = 7;

minConsecSameShifts = [1,1,1,1];
maxConsecSameShifts = [7,7,7,7];

minPerShifts = [0,0,0,0];
maxPerShifts = [5,5,4,7];